
# ----------------- Init Section -----------------

units real
processors 1 1 1
newton off
atom_style full
atom_modify sort 0 10.0

# ----------------- Atom Definition Section -----------------

read_data "MgMOF74-Pressure50000.data"

# ----------------- Settings Section -----------------

#include "MgMOF74-Pressure50000.in.settings"

# ----------------- Run Section -----------------

# define groups
group GUEST type 1
group MOF type 2 3 4 5 6 7 8 9 10 

# define computes
compute comT all com
compute comG GUEST com
compute comM MOF com

# settings
timestep           0.5
thermo             200
thermo_style       custom step temp epair emol etotal c_comT[1] c_comT[2] c_comT[3] c_comG[1] c_comG[2] c_comG[3] c_comM[1] c_comM[2] c_comM[3]
restart            2000000 sim.restart

# reset box to start at 0
change_box         all x delta $(-xlo) $(-xlo) y delta $(-ylo) $(-ylo) z delta $(-zlo) $(-zlo) remap units box
write_data         data_changebox.data

# get rid of overlapping atoms
run                0
velocity           GUEST create 313.0 1738991
fix                1 GUEST nvt temp 313.0 313.0 50.0
compute            allTemp all temp
fix_modify         1 temp allTemp
pair_style         soft 5.0
pair_coeff         * * 0.0 5.0
kspace_style       none
variable           prefactor equal ramp(1.0,20.0)
fix                2 all adapt 1 pair soft a * * v_prefactor
dump               1 all custom 200 dump-1.lammpstrj element x y z
dump_modify        1 element 1 2 3 4 5 6 7 8 9 10
run                10000
undump             1
unfix              2
write_data         data_overlap.data

# reset force field parameters
# Set 1-2, 1-3, and 1-4 pairwise interactions to zero; not needed if no bonded terms
special_bonds      lj/coul 0.0 0.0 0.0
kspace_style       pppm/disp 1.0e-6
neigh_modify       delay 0 every 1 check yes
include "MgMOF74-Pressure50000.in.settings"

# equilibration
thermo_style       custom step temp epair evdwl ecoul elong etail emol pe ke etotal 
#velocity           GUEST create 313.0 1738
#run                0
#velocity           GUEST scale 313.0
dump               2 all custom 200 dump-2.lammpstrj element x y z
dump_modify        2 element 1 2 3 4 5 6 7 8 9 10
run                10000000
undump             2 
write_data         data_nvt_eq.data

# data collection
reset_timestep     0
fix                3 GUEST ave/time 1 1 10 f_4[1] f_4[2] f_4[3] file traj.CofMs
fix_modify         1 temp guestTemp
dump               3 all custom 200 traj.all.100.dump id mol type x y z ix iy iz
run                100000000
write_data         data_nvt.data
