log             log.linker101_COH_linker101_NH2_bod append
units           real
atom_style      full
boundary        p p p

pair_style      lj/cut/coul/long 12.500
bond_style      harmonic
angle_style     cosine/squared
dihedral_style  charmm
improper_style  umbrella
kspace_style    ewald 0.000001

dielectric      1.0
pair_modify     tail yes mix arithmetic
special_bonds   dreiding
box tilt        large
read_data       data.linker101_COH_linker101_NH2_bod
min_style       sd
minimize        1.0e-8 1.0e-8 10000 100000

min_style       sd
fix             1 all box/relax iso 0.0 vmax 0.5
minimize        1.0e-8 1.0e-8 10000 100000
unfix           1
min_style       fire
minimize        1.0e-8 1.0e-8 10000 100000

min_style       sd
fix             2 all box/relax iso 0.0 vmax 0.5
minimize        1.0e-8 1.0e-8 10000 100000
unfix           2
min_style       fire
minimize        1.0e-8 1.0e-8 10000 100000

min_style       sd
fix             3 all box/relax iso 0.0 vmax 0.5
minimize        1.0e-8 1.0e-8 10000 100000
unfix           3
min_style       fire
minimize        1.0e-8 1.0e-8 10000 100000
dump linker101_COH_linker101_NH2_bod_mov all custom 1 linker101_COH_linker101_NH2_bod.lammpstrj element x y z
dump_modify linker101_COH_linker101_NH2_bod_mov element C H N
run 0
